h 1 2 0
h 3 -2 0
480766105042230923 -4 0
h 4 5 0
1100916803977658764 -6 0
468043296851347289 -7 0
h 8 5 0
639723537297675074 -9 0
h 10 8 0
737611908007769576 -3 0
116537285132549733 -11 0
1183687994707564879 -12 0
665814854241591995 -13 0
1009071469625152497 -14 0
h 15 12 -8 0
h -16 5 0
h 16 6 0
339228958385982657 -17 0
h -15 -2 0
1166123632403300386 -18 0
1176762419228094100 -19 0
850286139325900325 -10 0
352293658164015604 -20 0
h -5 19 0
309943118707264592 -21 0
987615796297960882 -22 0
1182124881713838023 -1 0
